\ LP format - for model browsing. Use MPS format to capture full model detail.
Maximize
  9 x_1 + 5 x_2 + 10 x_3 + 9 x_4 + 7 x_5
Subject To
 C_1: 5 x_1 + 7 x_2 + 5 x_3 + 10 x_4 + 8 x_5 <= 17
 C_2: 7 x_1 + 8 x_2 + 3 x_3 + 6 x_4 + 5 x_5 <= 14
 C_3: 8 x_1 + 10 x_2 + 5 x_3 + 8 x_4 + x_5 <= 16
 C_4: 3 x_1 + 7 x_2 + 8 x_3 + 6 x_4 + 7 x_5 <= 15
 C_5: 4 x_1 + 9 x_2 + 5 x_3 + 5 x_4 + 6 x_5 <= 14
Bounds
Binaries
 x_1 x_2 x_3 x_4 x_5
End
